%block LATTICE_CART
  9.2436359   0.0000000  -0.0709822
  0.0000000   9.3305987   0.0000000
 -3.2026914   0.0000000   4.5881546
%endblock LATTICE_CART

%block POSITIONS_ABS
  C  1.998702724  0.000000000  1.605122978
  C  6.620520693  4.665299336  1.569631854
  O  0.014624696  1.904164273  0.287018654
  O  4.636442666  2.761135063  0.251527530
  O  4.636442666  6.569463609  0.251527530
  O  0.014624696  7.426434399  0.287018654
  O  2.016325261  0.000000000  0.282705634
  O  6.638143231  4.665299336  0.247214511
  O  7.968288714  1.268299367  0.334672350
  O  3.346470744  3.396999969  0.370163474
  O  3.346470744  5.933598704  0.370163474
  O  7.968288714  8.062299305  0.334672350
  O  0.811456864  0.000000000  2.112191023
  O  5.433274834  4.665299336  2.076699899
  O  3.057967241  0.000000000  2.281404819
  O -1.563850729  4.665299336  2.316895943
  O  6.146396067  0.000000000  2.895917197
  O  1.524578097  4.665299336  2.931408321
  K  5.209984286  0.000000000  0.378893915
  K  0.588166316  4.665299336  0.414385038
  K -0.791362963  1.988426220  2.941735702
  K  3.830455007  2.676873116  2.906244578
  K  3.830455007  6.653725556  2.906244578
  K -0.791362963  7.342172452  2.941735702
  V  0.004430184  0.000000000 -0.008325343
  V  4.626248154  4.665299336 -0.043816467
%endblock POSITIONS_ABS

SYMMETRY_TOL : 0.0000001

SYMMETRY_GENERATE

KPOINTS_MP_GRID 3 3 3

%BLOCK SPECIES_POT
NCP
%ENDBLOCK SPECIES_POT

BS_KPOINT_PATH_SPACING 0.05 1/ang

%BLOCK BS_KPOINT_PATH
0.0 0.0 0.0    ! \Gamma
0.5 0.5 0.0    ! Y
0.5 0.0 0.0    ! V
0.0 0.0 0.0    ! \Gamma
0.0 0.0 0.5    ! A
0.5 0.5 0.5    ! M
0.5 0.0 0.5    ! L
0.5 0.0 0.0    ! V
%ENDBLOCK BS_KPOINT_PATH
