%block LATTICE_CART
  6.8103320   0.0000000   0.0000000
  0.0000000   6.8103320   0.0000000
  0.0000000   0.0000000   7.7946700
%endblock LATTICE_CART

%block POSITIONS_ABS
  V  0.000000000  0.000000000  0.000000000
  V  3.405166000  3.405166000  3.897335000
  K  3.405166000  3.405166000  0.000000000
  K  3.405166000  0.000000000  1.948667500
  K  0.000000000  3.405166000  1.948667500
  K  0.000000000  0.000000000  3.897335000
  K  3.405166000  0.000000000  5.846002500
  K  0.000000000  3.405166000  5.846002500
  O  1.395368923  1.395368923  0.121136966
  O  5.414963077  5.414963077  0.121136966
  O  0.919204131  0.919204131  1.429417763
  O  5.891127869  5.891127869  1.429417763
  O  4.324370131  2.485961869  2.467917237
  O  2.485961869  4.324370131  2.467917237
  O  4.800534923  2.009797077  3.776198034
  O  2.009797077  4.800534923  3.776198034
  O  2.009797077  2.009797077  4.018471966
  O  4.800534923  4.800534923  4.018471966
  O  2.485961869  2.485961869  5.326752763
  O  4.324370131  4.324370131  5.326752763
  O  5.891127869  0.919204131  6.365252237
  O  0.919204131  5.891127869  6.365252237
  O  5.414963077  1.395368923  7.673533034
  O  1.395368923  5.414963077  7.673533034
%endblock POSITIONS_ABS

KPOINT_MP_GRID 3 3 3

symmetry_generate

%BLOCK SPECIES_POT
NCP
%ENDBLOCK SPECIES_POT

