%block LATTICE_CART
  9.1840380   0.0000000   0.0000000
  0.0000000   9.4020860   0.0000000
 -3.1454310   0.0000000   4.7676780
%endblock LATTICE_CART

%block POSITIONS_ABS
  V  0.008313241  0.000000000  0.010145619
  V  4.600332241  4.701043000  0.010145619
  K  5.169922466  0.000000000  0.437196073
  K  0.577903466  4.701043000  0.437196073
  K -0.766015010  2.038442760  3.039938241
  K  3.826003990  2.662600240  3.039938241
  K  3.826003990  6.739485760  3.039938241
  K -0.766015010  7.363643240  3.039938241
  O  0.024180408  1.947110897  0.312597576
  O  4.616199408  2.753932103  0.312597576
  O  4.616199408  6.648153897  0.312597576
  O  0.024180408  7.454975103  0.312597576
  O  2.037847519  0.000000000  0.339968815
  O  6.629866519  4.701043000  0.339968815
  O  7.888099948  1.314717191  0.435246092
  O  3.296080948  3.386325809  0.435246092
  O  3.296080948  6.015760191  0.435246092
  O  7.888099948  8.087368809  0.435246092
  O  0.806367678  0.000000000  2.182776484
  O  5.398386678  4.701043000  2.182776484
  O  3.070439203  0.000000000  2.358727641
  O -1.521579797  4.701043000  2.358727641
  O  6.158308747  0.000000000  3.113279432
  O  1.566289747  4.701043000  3.113279432
  C  2.003661614  0.000000000  1.672711221
  C  6.595680614  4.701043000  1.672711221
%endblock POSITIONS_ABS

KPOINT_MP_GRID 3 3 3

symmetry_generate

%BLOCK SPECIES_POT
NCP
%ENDBLOCK SPECIES_POT
