%block LATTICE_CART
  5.0797499   0.0000000   0.0000000
 -0.0000000  10.7022837   0.0000000
  0.0000000   0.0000000   5.7883022
%endblock LATTICE_CART

%block POSITIONS_ABS
  O  2.119855918  2.675570928  0.000000020
  O  2.959893981  8.026712774  0.000000020
  O  2.015563108  0.245685429  1.447075571
  O  4.296661013  1.628530349  1.447075571
  O  3.064186792  5.596827274  1.447075571
  O  0.783088886  6.979672195  1.447075571
  O  2.119855918  2.675570928  2.894151122
  O  2.959893981  8.026712774  2.894151122
  O  4.296661013  3.722611507  4.341226673
  O  2.015563108  5.105456427  4.341226673
  O  0.783088886  9.073753353  4.341226673
  O  3.064186792  10.456598273  4.341226673
  K  0.337489334  4.276202120  1.447075571
  K  4.742260565  9.627343966  1.447075571
  K  0.337489334  1.074939736  4.341226673
  K  4.742260565  6.426081582  4.341226673
  V  2.658207834  1.743198052  1.447075571
  V  2.421542065  7.094339898  1.447075571
  V  2.658207834  3.607943804  4.341226673
  V  2.421542065  8.959085650  4.341226673
%endblock POSITIONS_ABS

SYMMETRY_GENERATE
SNAP_TO_SYMMETRY

KPOINTS_MP_GRID 4 2 4

%BLOCK SPECIES_POT
NCP
%ENDBLOCK SPECIES_POT

BS_KPOINT_PATH_SPACING 0.05 1/ang

%BLOCK BS_KPOINT_PATH
0.0 0.0 0.0    ! \Gamma
0.0 0.0 0.5    ! Z
-0.5 0.0 0.5   ! T
-0.5 0.0 0.0   ! Y
-0.5 0.5 0.0   ! S
-0.5 0.5 0.5   ! R
0.0 0.5 0.5    ! U
0.0 0.5 0.0    ! X
0.0 0.0 0.0    ! \Gamma
-0.5 0.0 0.0   ! Y
%ENDBLOCK BS_KPOINT_PATH
