%block LATTICE_CART
  6.6617758   0.0000000  -0.0000000
  0.0000000   6.6617758  -0.0000000
 -0.0000000  -0.0000000   7.7979236
%endblock LATTICE_CART

%block POSITIONS_ABS
  O  1.360941380  1.360941380  0.115490980
  O  5.300834375  5.300834375  0.115490980
  O  0.885702972  0.885702972  1.399016893
  O  5.776072783  5.776072783  1.399016893
  O  4.216590850  2.445184906  2.499944928
  O  2.445184906  4.216590850  2.499944928
  O  4.691829258  1.969946498  3.783470841
  O  1.969946498  4.691829258  3.783470841
  O  1.969946498  1.969946498  4.014452800
  O  4.691829258  4.691829258  4.014452800
  O  2.445184906  2.445184906  5.297978713
  O  4.216590850  4.216590850  5.297978713
  O  5.776072783  0.885702972  6.398906748
  O  0.885702972  5.776072783  6.398906748
  O  5.300834375  1.360941380  7.682432661
  O  1.360941380  5.300834375  7.682432661
  K  3.330887878  3.330887878 -0.000000000
  K  3.330887878 -0.000000000  1.949480910
  K  0.000000000  3.330887878  1.949480910
  K  0.000000000  0.000000000  3.898961820
  K  3.330887878 -0.000000000  5.848442731
  K  0.000000000  3.330887878  5.848442731
  V -0.000000000  0.000000000  0.000000000
  V  3.330887878  3.330887878  3.898961820
%endblock POSITIONS_ABS

SYMMETRY_GENERATE

KPOINTS_MP_GRID 3 3 3

%BLOCK SPECIES_POT
NCP
%ENDBLOCK SPECIES_POT

%BLOCK BS_KPOINT_PATH
0.00 0.00 0.00    ! \Gamma
0.00 0.00 0.50    ! X
0.25 0.25 0.25    ! P
0.00 0.50 0.00    ! N
0.00 0.00 0.00    ! \Gamma
0.50 0.50 -0.50   ! Z
%ENDBLOCK BS_KPOINT_PATH

BS_KPOINT_PATH_SPACING 0.05 1/ang
SYMMETRY_TOL : 0.0000001
