%block LATTICE_CART
  5.1974608   0.0000000   0.0000000
  0.0000000  10.6582440   0.0000000
  0.0000000   0.0000000   5.6551566
%endblock LATTICE_CART

%block POSITIONS_ABS
  V  2.722995763  1.704081619  1.413789160
  V  2.474465037  7.033203624  1.413789160
  V  2.722995763  3.625040386  4.241367480
  V  2.474465037  8.954162391  4.241367480
  K  0.306753097  4.210872260  1.413789160
  K  4.890707703  9.539994265  1.413789160
  K  0.306753097  1.118249745  4.241367480
  K  4.890707703  6.447371750  4.241367480
  O  2.141036077  2.664561003  0.000000000
  O  3.056424723  7.993683008  0.000000000
  O  2.044052238  0.202692196  1.413789160
  O  4.380600938  1.586815675  1.413789160
  O  3.153408562  5.531814201  1.413789160
  O  0.816859862  6.915937680  1.413789160
  O  2.141036077  2.664561002  2.827578320
  O  3.056424723  7.993683008  2.827578320
  O  4.380600938  3.742306330  4.241367480
  O  2.044052238  5.126429809  4.241367480
  O  0.816859862  9.071428335  4.241367480
  O  3.153408562  10.455551814  4.241367480
%endblock POSITIONS_ABS

KPOINTS_MP_SPACING 0.05 1/ang

SYMMETRY_GENERATE
SNAP_TO_SYMMETRY

%BLOCK SPECIES_POT
NCP
%ENDBLOCK SPECIES_POT

